NAME: tsp30-21
TYPE: TSP
DIMENSION: 30
EDGE_WEIGHT_TYPE: EUC_2D
NODE_COORD_SECTION
0 22 68
1 38 89
2 51 5
3 51 8
4 95 17
5 18 27
6 27 83
7 42 58
8 33 99
9 19 50
10 36 28
11 96 85
12 91 63
13 37 57
14 17 51
15 100 40
16 96 75
17 91 76
18 52 50
19 51 65
20 6 74
21 92 35
22 31 26
23 98 71
24 39 41
25 65 4
26 36 12
27 39 11
28 92 74
29 91 89
EOF